c CNF file corresponding to a (partial) station packing problem.
p cnf 6173 171
1 2 3 4 5 6 7 8 9 10 11 12 13 14 0
-1 -2 0
-1 -3 0
-1 -4 0
-1 -5 0
-1 -6 0
-1 -7 0
-1 -8 0
-1 -9 0
-1 -10 0
-1 -11 0
-1 -12 0
-1 -13 0
-1 -14 0
-2 -3 0
-2 -4 0
-2 -5 0
-2 -6 0
-2 -7 0
-2 -8 0
-2 -9 0
-2 -10 0
-2 -11 0
-2 -12 0
-2 -13 0
-2 -14 0
-3 -4 0
-3 -5 0
-3 -6 0
-3 -7 0
-3 -8 0
-3 -9 0
-3 -10 0
-3 -11 0
-3 -12 0
-3 -13 0
-3 -14 0
-4 -5 0
-4 -6 0
-4 -7 0
-4 -8 0
-4 -9 0
-4 -10 0
-4 -11 0
-4 -12 0
-4 -13 0
-4 -14 0
-5 -6 0
-5 -7 0
-5 -8 0
-5 -9 0
-5 -10 0
-5 -11 0
-5 -12 0
-5 -13 0
-5 -14 0
-6 -7 0
-6 -8 0
-6 -9 0
-6 -10 0
-6 -11 0
-6 -12 0
-6 -13 0
-6 -14 0
-7 -8 0
-7 -9 0
-7 -10 0
-7 -11 0
-7 -12 0
-7 -13 0
-7 -14 0
-8 -9 0
-8 -10 0
-8 -11 0
-8 -12 0
-8 -13 0
-8 -14 0
-9 -10 0
-9 -11 0
-9 -12 0
-9 -13 0
-9 -14 0
-10 -11 0
-10 -12 0
-10 -13 0
-10 -14 0
-11 -12 0
-11 -13 0
-11 -14 0
-12 -13 0
-12 -14 0
-13 -14 0
6161 6162 6163 6164 6165 6166 6167 6168 6169 6170 6171 6172 6173 0
-6161 -6162 0
-6161 -6163 0
-6161 -6164 0
-6161 -6165 0
-6161 -6166 0
-6161 -6167 0
-6161 -6168 0
-6161 -6169 0
-6161 -6170 0
-6161 -6171 0
-6161 -6172 0
-6161 -6173 0
-6162 -6163 0
-6162 -6164 0
-6162 -6165 0
-6162 -6166 0
-6162 -6167 0
-6162 -6168 0
-6162 -6169 0
-6162 -6170 0
-6162 -6171 0
-6162 -6172 0
-6162 -6173 0
-6163 -6164 0
-6163 -6165 0
-6163 -6166 0
-6163 -6167 0
-6163 -6168 0
-6163 -6169 0
-6163 -6170 0
-6163 -6171 0
-6163 -6172 0
-6163 -6173 0
-6164 -6165 0
-6164 -6166 0
-6164 -6167 0
-6164 -6168 0
-6164 -6169 0
-6164 -6170 0
-6164 -6171 0
-6164 -6172 0
-6164 -6173 0
-6165 -6166 0
-6165 -6167 0
-6165 -6168 0
-6165 -6169 0
-6165 -6170 0
-6165 -6171 0
-6165 -6172 0
-6165 -6173 0
-6166 -6167 0
-6166 -6168 0
-6166 -6169 0
-6166 -6170 0
-6166 -6171 0
-6166 -6172 0
-6166 -6173 0
-6167 -6168 0
-6167 -6169 0
-6167 -6170 0
-6167 -6171 0
-6167 -6172 0
-6167 -6173 0
-6168 -6169 0
-6168 -6170 0
-6168 -6171 0
-6168 -6172 0
-6168 -6173 0
-6169 -6170 0
-6169 -6171 0
-6169 -6172 0
-6169 -6173 0
-6170 -6171 0
-6170 -6172 0
-6170 -6173 0
-6171 -6172 0
-6171 -6173 0
-6172 -6173 0
